Ni2MnIn
 5.76
1 0 0
0 1 0
0 0 1
 Ni Mn In 
  8  4  4 
 Direct
0.25 0.25 0.25
0.75 0.25 0.25
0.25 0.75 0.25
0.75 0.75 0.25
0.25 0.25 0.75
0.75 0.25 0.75
0.25 0.75 0.75
0.75 0.75 0.75
0.5 0 0.5
0 0.5 0.5
0 0 0.5
0.5 0.5 0
0.5 0.5 0.5
0 0 0
0 0.5 0
0.5 0 0 
